NAME : n40w60.005.423.tour
COMMENT : Length = 423
COMMENT : Found by LKH [Keld Helsgaun] Tue Nov  7 19:35:16 2017
TYPE : TOUR
DIMENSION : 41
TOUR_SECTION
1
21
3
5
19
26
38
18
2
37
29
25
16
12
24
4
28
7
6
15
30
10
40
8
31
14
9
34
32
22
23
27
17
11
20
39
36
33
13
41
35
-1
EOF
